Normalized Data/p01_3070_tsplib0_normalized.txt
NAME: p01_3070_tsplib0_NORMALIZED
BEST_KNOWN: 0
COMMENT: 0
DIMENSION: 51
CAPACITY: 100
EDGE_WEIGHT_FORMAT: FUNCTION
EDGE_WEIGHT_TYPE: EXACT_2D
NODE_COORD_SECTION
1 0 0
2 7 12
3 19 9
4 22 24
5 -10 -14
6 10 -10
7 -9 7
8 -13 23
9 1 22
10 22 -7
11 21 -19
12 12 1
13 1 -8
14 -25 -15
15 -18 2
16 6 -24
17 22 1
18 -3 -17
19 -13 -7
20 -17 -27
21 27 18
22 32 2
23 12 17
24 -14 17
25 -22 12
26 -23 -2
27 -3 28
28 0 8
29 13 27
30 28 8
31 28 -13
32 7 29
33 8 6
34 16 -30
35 31 -7
36 32 23
37 33 29
38 2 -18
39 15 -5
40 29 -25
41 -25 -34
42 -20 -23
43 -9 -30
44 -25 24
45 0 -25
46 9 -30
47 2 -1
48 -5 -8
49 -5 15
50 18 -12
51 26 -3
DEMAND_SECTION
1 0
2 63
3 45
4 38
5 51
6 66
7 64
8 49
9 34
10 38
11 31
12 61
13 45
14 48
15 50
16 57
17 41
18 33
19 50
20 63
21 51
22 33
23 55
24 55
25 53
26 61
27 58
28 31
29 60
30 35
31 33
32 63
33 61
34 63
35 38
36 63
37 48
38 60
39 48
40 49
41 63
42 37
43 32
44 55
45 56
46 65
47 41
48 49
49 46
50 63
51 54
DEPOT_SECTION
1
-1
EOF