Normalized Data/p01_3070_tsplib0_normalized.sol
50 -1 27 -2 22 -3 28 -4 13 -5 -6 -7 48 -8 26 -9 38 -10 33 -11 -12 47 -14 18 -15 -16 50 -17 44 -19 42 -20 36 -21 35 -23 -24 -25 -29 31 -30 49 -32 -34 39 -37 -40 41 -43 -45 -46 0 





OBJ=
1653.604
BEST_KNOWN=
0.000